p cnf 10 15
9 -2 -10 3 1 0
-10 -1 -8 5 -7 0
3 -10 6 -5 7 0
1 2 10 -8 -7 0
-8 1 -10 7 -2 0
8 1 5 -3 -4 0
-8 -6 -4 9 1 0
7 -2 -10 -1 8 0
-9 8 6 -1 7 0
3 10 -7 -5 -8 0
8 1 2 -7 4 0
6 -7 4 5 9 0
2 7 1 10 -4 0
3 2 4 -8 9 0
-4 3 7 -2 -5 0
